examples/jump_minlp.nl
g3 1 1 0
 6 6 1 6 0 0
 2 1
 0 0
 2 2 2
 0 0 0 1
 3 0 0 0 0
 16 6
 0 0
 0 0 0 0 0
C0
o0
o2
n0.8
o43
o0
v1
n1
o2
n0.96
o43
o0
o1
v0
v1
n1
C1
o0
o43
o0
v1
n1
o2
n1.2
o43
o0
o1
v0
v1
n1
C2
n0
C3
n0
C4
n0
C5
n0
O0 0
o0
o1
o16
o2
n18
o43
o0
v1
n1
o2
n19.2
o43
o0
o1
v0
v1
n1
n10
d6
0 0
1 0
2 0
3 0
4 0
5 0
x6
0 0.0
1 0.0
2 0.0
3 0.0
4 0.0
5 0.0
r
2 0.0
2 -2.0
1 0.0
1 0.0
1 0.0
1 1.0
b
0 0.0 2.0
0 0.0 2.0
0 0.0 1.0
0 0.0 1.0
0 0.0 1.0
0 0.0 1.0
k5
4
9
11
13
15
J0 3
0 0.0
1 0.0
2 -0.8
J1 4
0 0.0
1 0.0
2 -1.0
5 -2.0
J2 2
0 -1.0
1 1.0
J3 2
1 1.0
3 -2.0
J4 3
0 1.0
1 -1.0
4 -2.0
J5 2
3 1.0
4 1.0
G0 6
0 10.0
1 0.0
2 -7.0
3 5.0
4 6.0
5 8.0
