examples/jump_minlp.sol
 

Options
3
1
1
0
6
0
6
6
1.3009758908846891
0
1
0
1
0
objno 0 0
